JulietBench/Juliet_Based_Patch_Bench/linux/CWE-189-Numeric-Errors/CVE_2010_2538_2ebc3464781ad24474abcbd2274e6254689853b5/Resultbtrfs_ioctl_clone_Snippet_patch1EQ.smt2
; benchmark generated from python API
(set-info :status unknown)
(declare-fun R () (_ BitVec 32))
(declare-fun rdi () (_ BitVec 64))
(declare-fun rsi () (_ BitVec 64))
(declare-fun rdx () (_ BitVec 64))
(assert
 (let (($x4503 (= (_ bv4294967274 32) R)))
 (let ((?x51 (bvadd rsi rdi)))
 (let (($x52 (bvult rdx ?x51)))
 (let (($x4510 (and $x52 $x4503)))
 (let (($x1263 (bvuge rdx ?x51)))
 (let (($x3682 (bvugt rdi ?x51)))
 (let (($x4509 (and $x3682 $x1263 $x4503)))
 (let ((?x4499 ((_ extract 31 0) rsi)))
 (let (($x4500 (= R ?x4499)))
 (let (($x3397 (bvule rdi ?x51)))
 (let (($x3455 (and (distinct (_ bv0 64) rsi) true)))
 (let (($x4508 (and $x3455 $x3397 $x1263 $x4500)))
 (let ((?x3434 (bvmul (_ bv18446744073709551615 64) rdi)))
 (let ((?x3457 (bvadd rdx ?x3434)))
 (let ((?x3678 ((_ extract 31 0) ?x3457)))
 (let (($x3681 (= R ?x3678)))
 (let (($x2622 (= (_ bv0 64) rsi)))
 (let (($x4507 (and $x2622 $x3397 $x1263 $x3681)))
 (let (($x4511 (or $x4507 $x4508 $x4509 $x4510)))
 (let (($x36 (bvuge rdi rdx)))
 (let (($x4505 (and $x36 $x4503)))
 (let (($x15 (bvult rdi rdx)))
 (let (($x4504 (and $x52 $x15 $x4503)))
 (let (($x4501 (and $x3455 $x1263 $x15 $x4500)))
 (let (($x3680 (and $x2622 $x1263 $x15 $x3681)))
 (let (($x4506 (or $x3680 $x4501 $x4504 $x4505)))
 (and $x4506 $x4511))))))))))))))))))))))))))))
(check-sat)
